3597.12
0 5 17 8 7 11 10 1 9 3 12 4 2 14 13 6 0
0 91 16 46 19 20 35 29 24 25 23 22 15 21 26 28 27 18 0
0 31 36 32 30 33 34 39 41 43 38 44 37 42 40 0
0 50 51 64 49 47 48 45 60 57 56 55 54 53 52 0
0 66 65 63 62 61 59 58 67 68 69 0
0 82 83 84 75 74 72 73 80 81 71 78 79 77 76 70 0
0 90 88 86 85 93 87 95 92 94 89 0
0 97 100 98 104 96 99 106 107 108 103 102 101 105 0
0 129 121 116 109 110 115 119 113 114 118 117 112 111 0
0 136 120 130 133 125 124 123 126 131 128 122 132 127 0
0 143 199 141 140 142 144 145 139 134 135 138 137 147 146 0
0 153 148 157 150 163 155 149 154 152 151 156 0
0 165 158 164 161 160 162 159 168 166 0
0 175 174 173 172 171 170 179 177 169 176 167 0
0 186 187 182 181 185 184 180 178 192 183 0
0 191 193 197 195 196 188 189 194 190 0
0 198 0
